(set-logic QF_S)
(set-option :strings-exp true)
(set-option :produce-models true)
(declare-fun sigmaStar_0 () String)
(declare-fun sigmaStar_1 () String)
(declare-fun sigmaStar_2 () String)
(declare-fun literal_6 () String)
(assert (= literal_6 "\x3c\x69\x6d\x67\x20\x73\x72\x63\x3d\x22\x22\x20\x61\x6c\x74\x3d\x22\x22\x20\x2f\x3e"))
(assert (str.in.re literal_6 (re.++ (re.* re.allchar) (re.++ (str.to.re "\x5c\x3c\x53\x43\x52\x49\x50\x54") (re.* re.allchar)))))
(check-sat)
(get-model)
